Maximize
 obj: 0 X1
Subject To
 c1:
  + 1 X59 + 1 X149 + 1 X78 + 1 X8 + 1 X15 + 1 X143 + 1 X131 + 1 X72
  + 1 X10
  <= 1
 c2:
  + 1 X40 + 1 X132 + 1 X4 + 1 X24 + 1 X70 + 1 X90 + 1 X136 + 1 X18
  + 1 X38 + 1 X79 + 1 X75 + 1 X29 + 1 X14 + 1 X131 + 1 X124 + 1 X122
  + 1 X25 + 1 X148 + 1 X135 + 1 X31
  <= 1
 c3:
  + 1 X142 + 1 X29 + 1 X5 + 1 X145 + 1 X135 + 1 X74 + 1 X33 + 1 X147
  + 1 X39 + 1 X79 + 1 X51 + 1 X53 + 1 X57 + 1 X24 + 1 X129 + 1 X1
  + 1 X120
  <= 1
 c4:
  + 1 X39 + 1 X72 + 1 X52 + 1 X93 + 1 X27 + 1 X57
  <= 1
 c5:
  + 1 X22 + 1 X87 + 1 X95 + 1 X76 + 1 X5 + 1 X101 + 1 X148
  <= 1
 c6:
  + 1 X69 + 1 X18 + 1 X143 + 1 X94 + 1 X16 + 1 X20 + 1 X116 + 1 X134
  + 1 X70 + 1 X11 + 1 X75 + 1 X74
  <= 1
 c7:
  + 1 X73 + 1 X11 + 1 X80 + 1 X51 + 1 X69 + 1 X23
  <= 1
 c8:
  + 1 X134 + 1 X27 + 1 X36 + 1 X67 + 1 X101 + 1 X24 + 1 X120 + 1 X52
  + 1 X31 + 1 X29 + 1 X103 + 1 X53 + 1 X79 + 1 X91 + 1 X25 + 1 X51
  + 1 X23 + 1 X7
  <= 1
 c9:
  + 1 X11 + 1 X67 + 1 X3 + 1 X66 + 1 X13 + 1 X130 + 1 X126 + 1 X77
  + 1 X107 + 1 X78 + 1 X41 + 1 X55 + 1 X124
  <= 1
 c10:
  + 1 X27 + 1 X25 + 1 X102 + 1 X115 + 1 X21 + 1 X35 + 1 X74 + 1 X77
  + 1 X95 + 1 X111
  <= 1
 c11:
  + 1 X27 + 1 X50 + 1 X41 + 1 X13 + 1 X139 + 1 X6 + 1 X46 + 1 X47
  + 1 X94 + 1 X150 + 1 X128 + 1 X126 + 1 X113 + 1 X96 + 1 X88 + 1 X119
  + 1 X73 + 1 X131
  <= 1
 c12:
  + 1 X75 + 1 X25 + 1 X121 + 1 X87 + 1 X129 + 1 X99 + 1 X104 + 1 X40
  + 1 X54 + 1 X34 + 1 X66 + 1 X58 + 1 X24 + 1 X47 + 1 X20 + 1 X12
  + 1 X84 + 1 X114
  <= 1
 c13:
  + 1 X34 + 1 X133 + 1 X70 + 1 X75 + 1 X33 + 1 X13 + 1 X107 + 1 X69
  + 1 X150 + 1 X120 + 1 X130 + 1 X148 + 1 X138 + 1 X108 + 1 X12
  <= 1
 c14:
  + 1 X60 + 1 X27 + 1 X134 + 1 X8 + 1 X92 + 1 X25 + 1 X79 + 1 X65
  + 1 X12
  <= 1
 c15:
  + 1 X130 + 1 X4 + 1 X70 + 1 X47 + 1 X32 + 1 X2 + 1 X86 + 1 X63
  + 1 X115 + 1 X48 + 1 X93 + 1 X66 + 1 X54 + 1 X128 + 1 X88 + 1 X94
  + 1 X143
  <= 1
 c16:
  + 1 X47 + 1 X55
  <= 1
 c17:
  + 1 X62 + 1 X57 + 1 X117 + 1 X10 + 1 X113 + 1 X124
  <= 1
 c18:
  + 1 X111 + 1 X12 + 1 X136 + 1 X33 + 1 X77 + 1 X2 + 1 X89 + 1 X82
  + 1 X20 + 1 X118 + 1 X133 + 1 X128
  <= 1
 c19:
  + 1 X81 + 1 X91 + 1 X58 + 1 X24 + 1 X87 + 1 X123 + 1 X104 + 1 X48
  + 1 X28 + 1 X55 + 1 X131 + 1 X134 + 1 X105 + 1 X146 + 1 X83 + 1 X130
  + 1 X132 + 1 X52
  <= 1
 c20:
  + 1 X111 + 1 X65 + 1 X55 + 1 X146 + 1 X64 + 1 X112 + 1 X13 + 1 X147
  + 1 X108
  <= 1
 c21:
  + 1 X136 + 1 X127 + 1 X62 + 1 X6 + 1 X35 + 1 X129 + 1 X45 + 1 X138
  + 1 X8 + 1 X97 + 1 X93 + 1 X112 + 1 X118 + 1 X2 + 1 X121 + 1 X140
  + 1 X148 + 1 X33
  <= 1
 c22:
  + 1 X140 + 1 X100
  <= 1
 c23:
  + 1 X45 + 1 X50 + 1 X133 + 1 X13
  <= 1
 c24:
  + 1 X1 + 1 X105 + 1 X150 + 1 X77 + 1 X23 + 1 X19 + 1 X30 + 1 X108
  + 1 X82 + 1 X111 + 1 X42 + 1 X52 + 1 X107
  <= 1
 c25:
  + 1 X4 + 1 X79 + 1 X51 + 1 X82 + 1 X55 + 1 X53 + 1 X150 + 1 X24
  + 1 X148 + 1 X56 + 1 X81 + 1 X50
  <= 1
 c26:
  + 1 X46 + 1 X141 + 1 X91 + 1 X8 + 1 X71 + 1 X138
  <= 1
 c27:
  + 1 X100 + 1 X86 + 1 X7 + 1 X97 + 1 X121 + 1 X15 + 1 X147 + 1 X68
  + 1 X99 + 1 X116 + 1 X4 + 1 X126 + 1 X94 + 1 X88 + 1 X87 + 1 X21
  + 1 X12
  <= 1
 c28:
  + 1 X97 + 1 X102 + 1 X112 + 1 X65 + 1 X14 + 1 X105 + 1 X94 + 1 X146
  + 1 X98 + 1 X23 + 1 X37 + 1 X9 + 1 X70 + 1 X2 + 1 X134 + 1 X138
  <= 1
 c29:
  + 1 X41 + 1 X100 + 1 X13 + 1 X121 + 1 X143 + 1 X77 + 1 X44 + 1 X107
  + 1 X34 + 1 X115 + 1 X61 + 1 X134 + 1 X9 + 1 X50 + 1 X110 + 1 X127
  + 1 X46 + 1 X87
  <= 1
 c30:
  + 1 X147 + 1 X81 + 1 X123 + 1 X57 + 1 X2 + 1 X35 + 1 X70 + 1 X16
  + 1 X10 + 1 X6 + 1 X86 + 1 X131 + 1 X42 + 1 X59 + 1 X74 + 1 X90
  + 1 X128 + 1 X114 + 1 X38
  <= 1
 obj1:
  + 99 X1 + 21 X2 + 80 X3 + 81 X4 + 53 X5 + 1 X6 + 25 X7 + 77 X8
  + 90 X9 + 17 X10 + 8 X11 + 58 X12 + 96 X13 + 15 X14 + 22 X15 + 6 X16
  + 27 X17 + 73 X18 + 72 X19 + 79 X20 + 20 X21 + 64 X22 + 57 X23 + 63 X24
  + 85 X25 + 32 X26 + 7 X27 + 46 X28 + 84 X29 + 94 X30 + 10 X31 + 98 X32
  + 45 X33 + 45 X34 + 79 X35 + 85 X36 + 70 X37 + 64 X38 + 90 X39 + 61 X40
  + 91 X41 + 33 X42 + 46 X43 + 16 X44 + 14 X45 + 76 X46 + 59 X47 + 100 X48
  + 54 X49 + 92 X50 + 8 X51 + 20 X52 + 67 X53 + 85 X54 + 5 X55 + 79 X56
  + 19 X57 + 14 X58 + 17 X59 + 78 X60 + 26 X61 + 74 X62 + 96 X63 + 42 X64
  + 46 X65 + 54 X66 + 51 X67 + 84 X68 + 20 X69 + 44 X70 + 66 X71 + 82 X72
  + 11 X73 + 23 X74 + 70 X75 + 73 X76 + 75 X77 + 92 X78 + 44 X79 + 74 X80
  + 61 X81 + 60 X82 + 39 X83 + 31 X84 + 35 X85 + 74 X86 + 46 X87 + 17 X88
  + 82 X89 + 21 X90 + 40 X91 + 13 X92 + 29 X93 + 70 X94 + 96 X95 + 19 X96
  + 13 X97 + 63 X98 + 38 X99 + 68 X100 + 43 X101 + 42 X102 + 64 X103 + 34 X104
  + 58 X105 + 21 X106 + 49 X107 + 54 X108 + 5 X109 + 57 X110 + 82 X111 + 19 X112
  + 50 X113 + 66 X114 + 36 X115 + 95 X116 + 97 X117 + 92 X118 + 70 X119 + 63 X120
  + 31 X121 + 40 X122 + 84 X123 + 48 X124 + 91 X125 + 42 X126 + 31 X127 + 100 X128
  + 71 X129 + 53 X130 + 56 X131 + 17 X132 + 55 X133 + 30 X134 + 26 X135 + 77 X136
  + 32 X137 + 25 X138 + 67 X139 + 57 X140 + 8 X141 + 14 X142 + 26 X143 + 97 X144
  + 64 X145 + 68 X146 + 32 X147 + 87 X148 + 17 X149 + 77 X150
  >= 1
 obj2:
  + 27 X1 + 15 X2 + 58 X3 + 61 X4 + 23 X5 + 88 X6 + 78 X7 + 22 X8
  + 43 X9 + 71 X10 + 92 X11 + 69 X12 + 37 X13 + 41 X14 + 76 X15 + 48 X16
  + 79 X17 + 92 X18 + 73 X19 + 84 X20 + 43 X21 + 23 X22 + 37 X23 + 54 X24
  + 45 X25 + 34 X26 + 52 X27 + 35 X28 + 16 X29 + 60 X30 + 50 X31 + 26 X32
  + 1 X33 + 26 X34 + 9 X35 + 93 X36 + 79 X37 + 8 X38 + 68 X39 + 77 X40
  + 34 X41 + 92 X42 + 77 X43 + 14 X44 + 51 X45 + 55 X46 + 1 X47 + 56 X48
  + 74 X49 + 54 X50 + 16 X51 + 59 X52 + 36 X53 + 90 X54 + 44 X55 + 40 X56
  + 97 X57 + 79 X58 + 7 X59 + 97 X60 + 84 X61 + 29 X62 + 21 X63 + 49 X64
  + 97 X65 + 57 X66 + 29 X67 + 55 X68 + 59 X69 + 11 X70 + 77 X71 + 17 X72
  + 32 X73 + 41 X74 + 55 X75 + 61 X76 + 50 X77 + 89 X78 + 38 X79 + 72 X80
  + 51 X81 + 94 X82 + 55 X83 + 66 X84 + 30 X85 + 52 X86 + 77 X87 + 76 X88
  + 56 X89 + 22 X90 + 36 X91 + 14 X92 + 35 X93 + 67 X94 + 69 X95 + 73 X96
  + 44 X97 + 84 X98 + 39 X99 + 3 X100 + 21 X101 + 32 X102 + 98 X103 + 49 X104
  + 18 X105 + 87 X106 + 32 X107 + 44 X108 + 53 X109 + 10 X110 + 48 X111 + 80 X112
  + 45 X113 + 94 X114 + 99 X115 + 94 X116 + 90 X117 + 17 X118 + 67 X119 + 73 X120
  + 72 X121 + 78 X122 + 32 X123 + 78 X124 + 33 X125 + 28 X126 + 79 X127 + 75 X128
  + 58 X129 + 14 X130 + 65 X131 + 75 X132 + 5 X133 + 31 X134 + 87 X135 + 95 X136
  + 32 X137 + 59 X138 + 72 X139 + 73 X140 + 67 X141 + 68 X142 + 60 X143 + 26 X144
  + 32 X145 + 54 X146 + 97 X147 + 90 X148 + 31 X149 + 21 X150
  >= 2
 obj3:
  + 87 X1 + 19 X2 + 73 X3 + 19 X4 + 56 X5 + 30 X6 + 10 X7 + 42 X8
  + 99 X9 + 57 X10 + 51 X11 + 69 X12 + 59 X13 + 71 X14 + 30 X15 + 8 X16
  + 69 X17 + 10 X18 + 29 X19 + 78 X20 + 78 X21 + 73 X22 + 48 X23 + 95 X24
  + 21 X25 + 50 X26 + 55 X27 + 97 X28 + 94 X29 + 64 X30 + 20 X31 + 42 X32
  + 93 X33 + 85 X34 + 5 X35 + 25 X36 + 59 X37 + 35 X38 + 95 X39 + 36 X40
  + 65 X41 + 63 X42 + 78 X43 + 61 X44 + 24 X45 + 2 X46 + 39 X47 + 100 X48
  + 11 X49 + 3 X50 + 53 X51 + 92 X52 + 75 X53 + 5 X54 + 61 X55 + 98 X56
  + 33 X57 + 68 X58 + 9 X59 + 4 X60 + 14 X61 + 36 X62 + 33 X63 + 15 X64
  + 57 X65 + 17 X66 + 97 X67 + 27 X68 + 93 X69 + 81 X70 + 56 X71 + 46 X72
  + 8 X73 + 42 X74 + 7 X75 + 8 X76 + 49 X77 + 77 X78 + 68 X79 + 33 X80
  + 82 X81 + 92 X82 + 62 X83 + 46 X84 + 55 X85 + 38 X86 + 63 X87 + 35 X88
  + 19 X89 + 31 X90 + 23 X91 + 40 X92 + 73 X93 + 10 X94 + 43 X95 + 48 X96
  + 91 X97 + 62 X98 + 61 X99 + 85 X100 + 18 X101 + 21 X102 + 52 X103 + 80 X104
  + 51 X105 + 38 X106 + 13 X107 + 99 X108 + 52 X109 + 57 X110 + 46 X111 + 7 X112
  + 57 X113 + 69 X114 + 20 X115 + 97 X116 + 30 X117 + 99 X118 + 70 X119 + 38 X120
  + 43 X121 + 85 X122 + 4 X123 + 56 X124 + 59 X125 + 41 X126 + 53 X127 + 71 X128
  + 50 X129 + 93 X130 + 27 X131 + 61 X132 + 32 X133 + 98 X134 + 16 X135 + 9 X136
  + 3 X137 + 25 X138 + 63 X139 + 8 X140 + 74 X141 + 33 X142 + 98 X143 + 76 X144
  + 49 X145 + 32 X146 + 99 X147 + 53 X148 + 70 X149 + 81 X150
  >= 3
 obj4:
  + 74 X1 + 63 X2 + 30 X3 + 47 X4 + 38 X5 + 48 X6 + 47 X7 + 79 X8
  + 72 X9 + 37 X10 + 6 X11 + 44 X12 + 6 X13 + 64 X14 + 11 X15 + 39 X16
  + 80 X17 + 94 X18 + 73 X19 + 89 X20 + 87 X21 + 58 X22 + 10 X23 + 36 X24
  + 3 X25 + 2 X26 + 13 X27 + 95 X28 + 41 X29 + 27 X30 + 20 X31 + 74 X32
  + 45 X33 + 88 X34 + 30 X35 + 23 X36 + 20 X37 + 38 X38 + 6 X39 + 69 X40
  + 92 X41 + 60 X42 + 50 X43 + 84 X44 + 74 X45 + 55 X46 + 55 X47 + 42 X48
  + 47 X49 + 56 X50 + 80 X51 + 42 X52 + 39 X53 + 66 X54 + 84 X55 + 92 X56
  + 89 X57 + 54 X58 + 3 X59 + 96 X60 + 8 X61 + 43 X62 + 4 X63 + 80 X64
  + 75 X65 + 16 X66 + 17 X67 + 9 X68 + 8 X69 + 19 X70 + 70 X71 + 47 X72
  + 72 X73 + 36 X74 + 99 X75 + 24 X76 + 60 X77 + 65 X78 + 47 X79 + 86 X80
  + 67 X81 + 23 X82 + 66 X83 + 77 X84 + 74 X85 + 71 X86 + 26 X87 + 60 X88
  + 67 X89 + 40 X90 + 60 X91 + 15 X92 + 37 X93 + 18 X94 + 100 X95 + 32 X96
  + 60 X97 + 62 X98 + 86 X99 + 11 X100 + 74 X101 + 41 X102 + 34 X103 + 6 X104
  + 89 X105 + 22 X106 + 43 X107 + 58 X108 + 43 X109 + 80 X110 + 21 X111 + 93 X112
  + 15 X113 + 78 X114 + 28 X115 + 2 X116 + 57 X117 + 21 X118 + 92 X119 + 6 X120
  + 21 X121 + 4 X122 + 29 X123 + 95 X124 + 61 X125 + 15 X126 + 22 X127 + 14 X128
  + 80 X129 + 73 X130 + 58 X131 + 38 X132 + 91 X133 + 13 X134 + 64 X135 + 63 X136
  + 99 X137 + 2 X138 + 95 X139 + 81 X140 + 82 X141 + 16 X142 + 27 X143 + 62 X144
  + 85 X145 + 57 X146 + 51 X147 + 46 X148 + 8 X149 + 57 X150
  >= 4
Binary
 X1
 X2
 X3
 X4
 X5
 X6
 X7
 X8
 X9
 X10
 X11
 X12
 X13
 X14
 X15
 X16
 X17
 X18
 X19
 X20
 X21
 X22
 X23
 X24
 X25
 X26
 X27
 X28
 X29
 X30
 X31
 X32
 X33
 X34
 X35
 X36
 X37
 X38
 X39
 X40
 X41
 X42
 X43
 X44
 X45
 X46
 X47
 X48
 X49
 X50
 X51
 X52
 X53
 X54
 X55
 X56
 X57
 X58
 X59
 X60
 X61
 X62
 X63
 X64
 X65
 X66
 X67
 X68
 X69
 X70
 X71
 X72
 X73
 X74
 X75
 X76
 X77
 X78
 X79
 X80
 X81
 X82
 X83
 X84
 X85
 X86
 X87
 X88
 X89
 X90
 X91
 X92
 X93
 X94
 X95
 X96
 X97
 X98
 X99
 X100
 X101
 X102
 X103
 X104
 X105
 X106
 X107
 X108
 X109
 X110
 X111
 X112
 X113
 X114
 X115
 X116
 X117
 X118
 X119
 X120
 X121
 X122
 X123
 X124
 X125
 X126
 X127
 X128
 X129
 X130
 X131
 X132
 X133
 X134
 X135
 X136
 X137
 X138
 X139
 X140
 X141
 X142
 X143
 X144
 X145
 X146
 X147
 X148
 X149
 X150
End
